100 90496

 156 995
254 13
90 541
272 574
768 915
853 507
779 544
632 472
514 269
709 57
391 409
842 53
678 551
698 308
536 534
886 135
253 933
382 895
778 190
493 344
890 614
347 96
370 355
889 252
465 916
517 853
333 580
277 521
656 931
120 933
880 970
780 126
191 161
695 677
603 542
185 19
274 62
409 889
700 869
639 358
533 892
769 594
758 806
618 428
787 114
335 434
882 458
615 551
823 106
547 992
219 245
543 199
372 527
698 538
476 440
837 772
679 517
685 610
218 724
985 26
842 571
790 885
331 18
536 406
138 927
539 354
146 459
554 982
649 200
391 66
499 860
876 869
109 473
792 515
171 836
37 739
186 266
766 17
406 480
873 859
525 896
23 957
717 880
111 581
790 445
169 775
346 740
762 539
955 88
372 927
830 456
191 364
808 630
658 674
193 211
303 837
132 290
383 187
204 407
644 731
